100
1000
199
199
199
198
197
197
197
196
196
196
195
195
194
193
190
190
190
190
190
190
189
189
188
188
188
188
187
187
187
187
187
185
184
184
183
183
182
181
181
181
181
180
180
179
177
177
177
176
175
175
174
173
173
173
173
173
172
172
171
171
170
170
169
168
167
167
167
166
166
166
166
165
164
163
163
163
162
162
160
160
160
159
159
158
156
155
155
155
155
154
153
153
152
151
151
151
151
151
151
150
